Solver command line: ['C:\\Program Files\\IBM\\ILOG\\CPLEX_Studio2211\\cplex\\bin\\x64_win64\\cplex.exe']


Welcome to IBM(R) ILOG(R) CPLEX(R) Interactive Optimizer 22.1.1.0
  with Simplex, Mixed Integer & Barrier Optimizers
5725-A06 5725-A29 5724-Y48 5724-Y49 5724-Y54 5724-Y55 5655-Y21
Copyright IBM Corp. 1988, 2022.  All Rights Reserved.

Type 'help' for a list of available commands.
Type 'help' followed by a command name for more
information on commands.

CPLEX> Logfile 'cplex.log' closed.
Logfile 'C:\Users\wangy\Documents\GitHub\re_optimization\result_site_specific\tmpql7rjh1z.cplex.log' open.
CPLEX> Problem 'C:\Users\wangy\Documents\GitHub\re_optimization\result_site_specific\tmpzfbppyvr.pyomo.lp' read.
Read time = 0.27 sec. (7.98 ticks)
CPLEX> Problem name         : C:\Users\wangy\Documents\GitHub\re_optimization\result_site_specific\tmpzfbppyvr.pyomo.lp
Objective sense      : Minimize
Variables            :   56997  [Nneg: 30685,  Free: 4406,  Binary: 6,
                                 Other: 21900]
Objective nonzeros   :      14
Linear constraints   :   78893  [Less: 42355,  Greater: 5,  Equal: 36533]
  Nonzeros           :  198759
  RHS nonzeros       :    3656

Variables            : Min LB: 0.000000         Max UB: 1.000000       
Objective nonzeros   : Min   : 1.000000         Max   : 1.000000       
Linear constraints   :
  Nonzeros           : Min   : 0.002166843      Max   : 100000.0       
  RHS nonzeros       : Min   : 0.02300000       Max   : 100000.0       
CPLEX> Version identifier: 22.1.1.0 | 2022-11-27 | 9160aff4d
Tried aggregator 3 times.
MIP Presolve eliminated 46276 rows and 25833 columns.
Aggregator did 10707 substitutions.
Reduced MIP has 21910 rows, 20457 columns, and 65855 nonzeros.
Reduced MIP has 2 binaries, 0 generals, 0 SOSs, and 0 indicators.
Presolve time = 0.19 sec. (207.94 ticks)
Found incumbent of value 215216.468857 after 0.26 sec. (306.90 ticks)
Probing time = 0.02 sec. (1.14 ticks)
Tried aggregator 1 time.
Detecting symmetries...
Reduced MIP has 21910 rows, 20457 columns, and 65855 nonzeros.
Reduced MIP has 2 binaries, 0 generals, 0 SOSs, and 0 indicators.
Presolve time = 0.03 sec. (42.57 ticks)
Probing time = 0.00 sec. (1.07 ticks)
MIP emphasis: balance optimality and feasibility.
MIP search method: dynamic search.
Parallel mode: deterministic, using up to 16 threads.
Root relaxation solution time = 1.28 sec. (1018.57 ticks)

        Nodes                                         Cuts/
   Node  Left     Objective  IInf  Best Integer    Best Bound    ItCnt     Gap

*     0+    0                       215216.4689    -7528.0226           103.50%
      0     0     5743.2345     1   215216.4689     5743.2345       86   97.33%
*     0+    0                         7347.9073     5743.2345            21.84%
*     0+    0                         6356.2559     5743.2345             9.64%
      0     0        cutoff           6356.2559                    261    0.00%
Elapsed time = 1.83 sec. (1678.21 ticks, tree = 0.01 MB, solutions = 3)

Root node processing (before b&c):
  Real time             =    1.84 sec. (1680.98 ticks)
Parallel b&c, 16 threads:
  Real time             =    0.00 sec. (0.00 ticks)
  Sync time (average)   =    0.00 sec.
  Wait time (average)   =    0.00 sec.
                          ------------
Total (root+branch&cut) =    1.84 sec. (1680.98 ticks)

Solution pool: 3 solutions saved.

MIP - Integer optimal solution:  Objective =  6.3562559208e+03
Solution time =    1.84 sec.  Iterations = 261  Nodes = 0
Deterministic time = 1681.14 ticks  (912.18 ticks/sec)

CPLEX> Incumbent solution written to file 'C:\Users\wangy\Documents\GitHub\re_optimization\result_site_specific\tmpx19cf1wd.cplex.sol'.
CPLEX> 
